
<<< setup

Version identifier: 22.1.1.0 | 2022-11-27 | 9160aff4d
Tried aggregator 1 time.
LP Presolve eliminated 105 rows and 71 columns.
Reduced LP has 4 rows, 22 columns, and 22 nonzeros.
Presolve time = 0.00 sec. (0.05 ticks)

Iteration log . . .
Iteration:     1   Dual infeasibility =             8.096486
Iteration:     3   Dual objective     =          1088.040560
main returns 0

<<< main


<<< done

